(set-logic QF_UF)
(declare-fun A0 () Bool)
(declare-fun A1 () Bool)
(declare-fun A2 () Bool)
(declare-fun A3 () Bool)
(declare-fun A4 () Bool)
(declare-fun A5 () Bool)
(declare-fun A6 () Bool)
(declare-fun A7 () Bool)
(declare-fun A8 () Bool)
(declare-fun A9 () Bool)
(declare-fun A10 () Bool)
(declare-fun A11 () Bool)
(declare-fun A12 () Bool)
(declare-fun A13 () Bool)
(declare-fun A14 () Bool)
(declare-fun A15 () Bool)
(declare-fun A16 () Bool)
(declare-fun A17 () Bool)
(declare-fun A18 () Bool)
(declare-fun A19 () Bool)
(declare-fun A20 () Bool)
(declare-fun A21 () Bool)
(declare-fun A22 () Bool)
(declare-fun A23 () Bool)
(declare-fun A24 () Bool)
(assert (let ((.def_0 (and A24 A11))) (let ((.def_1 (not A0))) (let ((.def_2 (and .def_1 A21))) (let ((.def_3 (not .def_2))) (let ((.def_4 (or .def_3 .def_0))) (let ((.def_5 (or A15 A22))) (let ((.def_6 (not .def_5))) (let ((.def_7 (not A21))) (let ((.def_8 (not A19))) (let ((.def_9 (and .def_8 .def_7))) (let ((.def_10 (not .def_9))) (let ((.def_11 (and .def_10 .def_6))) (let ((.def_12 (and .def_11 .def_4))) (let ((.def_13 (not .def_12))) (let ((.def_14 (not A12))) (let ((.def_15 (or .def_14 A23))) (let ((.def_16 (not .def_15))) (let ((.def_17 (not A5))) (let ((.def_18 (= .def_17 A5))) (let ((.def_19 (not .def_18))) (let ((.def_20 (and .def_19 .def_16))) (let ((.def_21 (not A15))) (let ((.def_22 (and .def_21 A4))) (let ((.def_23 (not .def_22))) (let ((.def_24 (not A22))) (let ((.def_25 (and A9 .def_24))) (let ((.def_26 (not .def_25))) (let ((.def_27 (and .def_26 .def_23))) (let ((.def_28 (or .def_27 .def_20))) (let ((.def_29 (not .def_28))) (let ((.def_30 (or .def_29 .def_13))) (let ((.def_31 (not .def_30))) (let ((.def_32 (and A18 A15))) (let ((.def_33 (not A20))) (let ((.def_34 (not A24))) (let ((.def_35 (and .def_34 .def_33))) (let ((.def_36 (not .def_35))) (let ((.def_37 (and .def_36 .def_32))) (let ((.def_38 (or A21 A14))) (let ((.def_39 (not .def_38))) (let ((.def_40 (and .def_21 A16))) (let ((.def_41 (not .def_40))) (let ((.def_42 (and .def_41 .def_39))) (let ((.def_43 (not .def_42))) (let ((.def_44 (and .def_43 .def_37))) (let ((.def_45 (not .def_44))) (let ((.def_46 (or A3 A11))) (let ((.def_47 (not A18))) (let ((.def_48 (not A11))) (let ((.def_49 (and .def_48 .def_47))) (let ((.def_50 (not .def_49))) (let ((.def_51 (or .def_50 .def_46))) (let ((.def_52 (not .def_51))) (let ((.def_53 (and A20 A6))) (let ((.def_54 (not .def_53))) (let ((.def_55 (or A12 A2))) (let ((.def_56 (and .def_55 .def_54))) (let ((.def_57 (and .def_56 .def_52))) (let ((.def_58 (not .def_57))) (let ((.def_59 (or .def_58 .def_45))) (let ((.def_60 (or .def_59 .def_31))) (let ((.def_61 (not .def_60))) (let ((.def_62 (= A17 .def_8))) (let ((.def_63 (and A6 A6))) (let ((.def_64 (not .def_63))) (let ((.def_65 (and .def_64 .def_62))) (let ((.def_66 (or A0 .def_21))) (let ((.def_67 (not .def_66))) (let ((.def_68 (not A14))) (let ((.def_69 (or .def_14 .def_68))) (let ((.def_70 (not .def_69))) (let ((.def_71 (and .def_70 .def_67))) (let ((.def_72 (not .def_71))) (let ((.def_73 (= .def_72 .def_65))) (let ((.def_74 (and .def_7 .def_24))) (let ((.def_75 (not .def_74))) (let ((.def_76 (not A17))) (let ((.def_77 (and .def_76 .def_17))) (let ((.def_78 (or .def_77 .def_75))) (let ((.def_79 (not .def_78))) (let ((.def_80 (or A6 .def_17))) (let ((.def_81 (and .def_7 A18))) (let ((.def_82 (or .def_81 .def_80))) (let ((.def_83 (or .def_82 .def_79))) (let ((.def_84 (not .def_83))) (let ((.def_85 (or .def_84 .def_73))) (let ((.def_86 (not A7))) (let ((.def_87 (or .def_86 A2))) (let ((.def_88 (not .def_87))) (let ((.def_89 (and A20 A16))) (let ((.def_90 (or .def_89 .def_88))) (let ((.def_91 (not .def_90))) (let ((.def_92 (not A9))) (let ((.def_93 (or .def_92 .def_24))) (let ((.def_94 (or .def_48 A13))) (let ((.def_95 (not .def_94))) (let ((.def_96 (= .def_95 .def_93))) (let ((.def_97 (not .def_96))) (let ((.def_98 (or .def_97 .def_91))) (let ((.def_99 (not A1))) (let ((.def_100 (or .def_76 .def_99))) (let ((.def_101 (not .def_100))) (let ((.def_102 (not A2))) (let ((.def_103 (= .def_21 .def_102))) (let ((.def_104 (not .def_103))) (let ((.def_105 (or .def_104 .def_101))) (let ((.def_106 (not A3))) (let ((.def_107 (not A8))) (let ((.def_108 (= .def_107 .def_106))) (let ((.def_109 (not .def_108))) (let ((.def_110 (and A22 .def_102))) (let ((.def_111 (or .def_110 .def_109))) (let ((.def_112 (or .def_111 .def_105))) (let ((.def_113 (not .def_112))) (let ((.def_114 (or .def_113 .def_98))) (let ((.def_115 (not .def_114))) (let ((.def_116 (or .def_115 .def_85))) (let ((.def_117 (and .def_116 .def_61))) (let ((.def_118 (not .def_117))) (let ((.def_119 (or A18 A12))) (let ((.def_120 (not A6))) (let ((.def_121 (or .def_120 A15))) (let ((.def_122 (and .def_121 .def_119))) (let ((.def_123 (or .def_34 A1))) (let ((.def_124 (= A19 .def_1))) (let ((.def_125 (not .def_124))) (let ((.def_126 (or .def_125 .def_123))) (let ((.def_127 (not .def_126))) (let ((.def_128 (and .def_127 .def_122))) (let ((.def_129 (not .def_128))) (let ((.def_130 (and .def_21 A2))) (let ((.def_131 (not A16))) (let ((.def_132 (and .def_21 .def_131))) (let ((.def_133 (or .def_132 .def_130))) (let ((.def_134 (not .def_133))) (let ((.def_135 (or A23 A18))) (let ((.def_136 (not .def_135))) (let ((.def_137 (or A4 A8))) (let ((.def_138 (not .def_137))) (let ((.def_139 (and .def_138 .def_136))) (let ((.def_140 (not .def_139))) (let ((.def_141 (and .def_140 .def_134))) (let ((.def_142 (or .def_141 .def_129))) (let ((.def_143 (or .def_92 A18))) (let ((.def_144 (or .def_76 A17))) (let ((.def_145 (not .def_144))) (let ((.def_146 (and .def_145 .def_143))) (let ((.def_147 (or A19 A23))) (let ((.def_148 (or A17 A1))) (let ((.def_149 (or .def_148 .def_147))) (let ((.def_150 (not .def_149))) (let ((.def_151 (or .def_150 .def_146))) (let ((.def_152 (not .def_151))) (let ((.def_153 (or A14 .def_14))) (let ((.def_154 (not .def_153))) (let ((.def_155 (or .def_48 A6))) (let ((.def_156 (and .def_155 .def_154))) (let ((.def_157 (not .def_156))) (let ((.def_158 (or .def_86 .def_17))) (let ((.def_159 (or A15 .def_21))) (let ((.def_160 (not .def_159))) (let ((.def_161 (or .def_160 .def_158))) (let ((.def_162 (not .def_161))) (let ((.def_163 (or .def_162 .def_157))) (let ((.def_164 (not .def_163))) (let ((.def_165 (and .def_164 .def_152))) (let ((.def_166 (and .def_165 .def_142))) (let ((.def_167 (not .def_166))) (let ((.def_168 (and .def_48 A5))) (let ((.def_169 (or .def_1 .def_14))) (let ((.def_170 (and .def_169 .def_168))) (let ((.def_171 (and A4 A21))) (let ((.def_172 (not .def_171))) (let ((.def_173 (and .def_34 A8))) (let ((.def_174 (and .def_173 .def_172))) (let ((.def_175 (and .def_174 .def_170))) (let ((.def_176 (= A23 .def_8))) (let ((.def_177 (or A13 .def_92))) (let ((.def_178 (and .def_177 .def_176))) (let ((.def_179 (not A13))) (let ((.def_180 (and .def_179 .def_131))) (let ((.def_181 (not .def_180))) (let ((.def_182 (or .def_8 .def_76))) (let ((.def_183 (not .def_182))) (let ((.def_184 (or .def_183 .def_181))) (let ((.def_185 (or .def_184 .def_178))) (let ((.def_186 (and .def_185 .def_175))) (let ((.def_187 (not .def_186))) (let ((.def_188 (= .def_99 A20))) (let ((.def_189 (not .def_188))) (let ((.def_190 (or .def_99 .def_24))) (let ((.def_191 (not .def_190))) (let ((.def_192 (or .def_191 .def_189))) (let ((.def_193 (not .def_192))) (let ((.def_194 (or .def_120 A18))) (let ((.def_195 (= .def_47 A10))) (let ((.def_196 (and .def_195 .def_194))) (let ((.def_197 (or .def_196 .def_193))) (let ((.def_198 (not .def_197))) (let ((.def_199 (and .def_92 .def_24))) (let ((.def_200 (not .def_199))) (let ((.def_201 (and .def_8 .def_17))) (let ((.def_202 (not .def_201))) (let ((.def_203 (and .def_202 .def_200))) (let ((.def_204 (not .def_203))) (let ((.def_205 (or .def_24 A6))) (let ((.def_206 (and .def_47 A3))) (let ((.def_207 (not .def_206))) (let ((.def_208 (or .def_207 .def_205))) (let ((.def_209 (and .def_208 .def_204))) (let ((.def_210 (not .def_209))) (let ((.def_211 (and .def_210 .def_198))) (let ((.def_212 (= .def_211 .def_187))) (let ((.def_213 (and .def_212 .def_167))) (let ((.def_214 (not .def_213))) (let ((.def_215 (or .def_214 .def_118))) (let ((.def_216 (not .def_215))) (let ((.def_217 (or .def_21 A16))) (let ((.def_218 (and A16 A11))) (let ((.def_219 (and .def_218 .def_217))) (let ((.def_220 (or A12 A15))) (let ((.def_221 (or A10 .def_34))) (let ((.def_222 (or .def_221 .def_220))) (let ((.def_223 (or .def_222 .def_219))) (let ((.def_224 (not .def_223))) (let ((.def_225 (or .def_107 .def_8))) (let ((.def_226 (not .def_225))) (let ((.def_227 (and A9 .def_33))) (let ((.def_228 (not .def_227))) (let ((.def_229 (and .def_228 .def_226))) (let ((.def_230 (not .def_229))) (let ((.def_231 (not A10))) (let ((.def_232 (or .def_231 .def_14))) (let ((.def_233 (not .def_232))) (let ((.def_234 (and A3 A18))) (let ((.def_235 (and .def_234 .def_233))) (let ((.def_236 (and .def_235 .def_230))) (let ((.def_237 (not .def_236))) (let ((.def_238 (= .def_237 .def_224))) (let ((.def_239 (not .def_238))) (let ((.def_240 (and .def_7 .def_102))) (let ((.def_241 (= .def_34 A13))) (let ((.def_242 (and .def_241 .def_240))) (let ((.def_243 (= A24 .def_76))) (let ((.def_244 (not .def_243))) (let ((.def_245 (or .def_8 A24))) (let ((.def_246 (or .def_245 .def_244))) (let ((.def_247 (not .def_246))) (let ((.def_248 (and .def_247 .def_242))) (let ((.def_249 (and A3 A8))) (let ((.def_250 (not .def_249))) (let ((.def_251 (or .def_231 A20))) (let ((.def_252 (or .def_251 .def_250))) (let ((.def_253 (and A23 A20))) (let ((.def_254 (not .def_253))) (let ((.def_255 (and .def_17 A21))) (let ((.def_256 (or .def_255 .def_254))) (let ((.def_257 (not .def_256))) (let ((.def_258 (or .def_257 .def_252))) (let ((.def_259 (not .def_258))) (let ((.def_260 (and .def_259 .def_248))) (let ((.def_261 (and .def_260 .def_239))) (let ((.def_262 (not .def_261))) (let ((.def_263 (or A23 A17))) (let ((.def_264 (or .def_92 A23))) (let ((.def_265 (not .def_264))) (let ((.def_266 (and .def_265 .def_263))) (let ((.def_267 (or A18 .def_14))) (let ((.def_268 (not .def_267))) (let ((.def_269 (or A3 A24))) (let ((.def_270 (not .def_269))) (let ((.def_271 (and .def_270 .def_268))) (let ((.def_272 (not .def_271))) (let ((.def_273 (and .def_272 .def_266))) (let ((.def_274 (not .def_273))) (let ((.def_275 (and A8 A22))) (let ((.def_276 (and A18 .def_7))) (let ((.def_277 (and .def_276 .def_275))) (let ((.def_278 (not .def_277))) (let ((.def_279 (and A8 .def_21))) (let ((.def_280 (not .def_279))) (let ((.def_281 (or A20 A19))) (let ((.def_282 (and .def_281 .def_280))) (let ((.def_283 (not .def_282))) (let ((.def_284 (and .def_283 .def_278))) (let ((.def_285 (or .def_284 .def_274))) (let ((.def_286 (= A9 A4))) (let ((.def_287 (or A2 .def_107))) (let ((.def_288 (or .def_287 .def_286))) (let ((.def_289 (= A20 .def_231))) (let ((.def_290 (not A4))) (let ((.def_291 (= .def_24 .def_290))) (let ((.def_292 (not .def_291))) (let ((.def_293 (and .def_292 .def_289))) (let ((.def_294 (or .def_293 .def_288))) (let ((.def_295 (not .def_294))) (let ((.def_296 (or .def_48 A22))) (let ((.def_297 (and .def_120 A13))) (let ((.def_298 (or .def_297 .def_296))) (let ((.def_299 (not .def_298))) (let ((.def_300 (and .def_106 A9))) (let ((.def_301 (not .def_300))) (let ((.def_302 (or A20 .def_99))) (let ((.def_303 (not .def_302))) (let ((.def_304 (and .def_303 .def_301))) (let ((.def_305 (not .def_304))) (let ((.def_306 (and .def_305 .def_299))) (let ((.def_307 (= .def_306 .def_295))) (let ((.def_308 (or .def_307 .def_285))) (let ((.def_309 (not .def_308))) (let ((.def_310 (or .def_309 .def_262))) (let ((.def_311 (not .def_310))) (let ((.def_312 (and .def_8 .def_8))) (let ((.def_313 (and .def_48 A11))) (let ((.def_314 (not .def_313))) (let ((.def_315 (and .def_314 .def_312))) (let ((.def_316 (or A12 A1))) (let ((.def_317 (and A20 .def_17))) (let ((.def_318 (or .def_317 .def_316))) (let ((.def_319 (not .def_318))) (let ((.def_320 (or .def_319 .def_315))) (let ((.def_321 (not .def_320))) (let ((.def_322 (and .def_48 .def_107))) (let ((.def_323 (or .def_107 .def_48))) (let ((.def_324 (not .def_323))) (let ((.def_325 (or .def_324 .def_322))) (let ((.def_326 (or .def_24 A8))) (let ((.def_327 (= .def_7 .def_24))) (let ((.def_328 (not .def_327))) (let ((.def_329 (and .def_328 .def_326))) (let ((.def_330 (and .def_329 .def_325))) (let ((.def_331 (not .def_330))) (let ((.def_332 (and .def_331 .def_321))) (let ((.def_333 (not .def_332))) (let ((.def_334 (= .def_131 A4))) (let ((.def_335 (and A8 A5))) (let ((.def_336 (or .def_335 .def_334))) (let ((.def_337 (and A1 A10))) (let ((.def_338 (not .def_337))) (let ((.def_339 (and A10 .def_33))) (let ((.def_340 (and .def_339 .def_338))) (let ((.def_341 (= .def_340 .def_336))) (let ((.def_342 (not .def_341))) (let ((.def_343 (= A6 A9))) (let ((.def_344 (not .def_343))) (let ((.def_345 (or A1 A18))) (let ((.def_346 (= .def_345 .def_344))) (let ((.def_347 (= .def_231 .def_48))) (let ((.def_348 (not .def_347))) (let ((.def_349 (and A3 A9))) (let ((.def_350 (not .def_349))) (let ((.def_351 (or .def_350 .def_348))) (let ((.def_352 (or .def_351 .def_346))) (let ((.def_353 (and .def_352 .def_342))) (let ((.def_354 (or .def_353 .def_333))) (let ((.def_355 (not .def_354))) (let ((.def_356 (or .def_131 .def_290))) (let ((.def_357 (and A19 .def_107))) (let ((.def_358 (not .def_357))) (let ((.def_359 (or .def_358 .def_356))) (let ((.def_360 (or .def_76 .def_106))) (let ((.def_361 (not .def_360))) (let ((.def_362 (or .def_7 .def_107))) (let ((.def_363 (not .def_362))) (let ((.def_364 (and .def_363 .def_361))) (let ((.def_365 (not .def_364))) (let ((.def_366 (or .def_365 .def_359))) (let ((.def_367 (not .def_366))) (let ((.def_368 (or .def_120 .def_106))) (let ((.def_369 (or .def_86 A18))) (let ((.def_370 (or .def_369 .def_368))) (let ((.def_371 (and A22 .def_7))) (let ((.def_372 (not .def_371))) (let ((.def_373 (and .def_34 A4))) (let ((.def_374 (not .def_373))) (let ((.def_375 (or .def_374 .def_372))) (let ((.def_376 (and .def_375 .def_370))) (let ((.def_377 (or .def_376 .def_367))) (let ((.def_378 (not .def_377))) (let ((.def_379 (not A23))) (let ((.def_380 (or .def_1 .def_379))) (let ((.def_381 (not .def_380))) (let ((.def_382 (or .def_76 .def_86))) (let ((.def_383 (and .def_382 .def_381))) (let ((.def_384 (not .def_383))) (let ((.def_385 (or A23 .def_7))) (let ((.def_386 (not .def_385))) (let ((.def_387 (= .def_386 .def_154))) (let ((.def_388 (= .def_387 .def_384))) (let ((.def_389 (not .def_388))) (let ((.def_390 (or .def_76 A20))) (let ((.def_391 (not .def_390))) (let ((.def_392 (or A18 .def_106))) (let ((.def_393 (not .def_392))) (let ((.def_394 (and .def_393 .def_391))) (let ((.def_395 (or .def_17 A20))) (let ((.def_396 (not .def_395))) (let ((.def_397 (and A4 A18))) (let ((.def_398 (not .def_397))) (let ((.def_399 (or .def_398 .def_396))) (let ((.def_400 (or .def_399 .def_394))) (let ((.def_401 (not .def_400))) (let ((.def_402 (and .def_401 .def_389))) (let ((.def_403 (= .def_402 .def_378))) (let ((.def_404 (and .def_403 .def_355))) (let ((.def_405 (not .def_404))) (let ((.def_406 (= .def_405 .def_311))) (let ((.def_407 (not .def_406))) (let ((.def_408 (or .def_407 .def_216))) .def_408))))))))))))))))))))))))))))))))))))))))))))))))))))))))))))))))))))))))))))))))))))))))))))))))))))))))))))))))))))))))))))))))))))))))))))))))))))))))))))))))))))))))))))))))))))))))))))))))))))))))))))))))))))))))))))))))))))))))))))))))))))))))))))))))))))))))))))))))))))))))))))))))))))))))))))))))))))))))))))))))))))))))))))))))))))))))))))))))))))))))))))))))))))))))))))))))))))))))))))))))))))))))))
(check-sat)
